871555
15, 83, 50, 88, 36, 38, 76, 87, 45, 86, 81, 4, 66, 7, 14, 39, 92, 84, 22, 73, 43, 24, 52, 65, 98, 54, 11, 23, 28, 46, 71, 34, 90, 59, 19, 12, 17, 26, 94, 40, 29, 79, 51, 78, 25, 95, 47, 57, 33, 9, 20, 21, 30, 96, 77, 18, 41, 69, 6, 75, 56, 10, 49, 93, 63, 13, 68, 99, 80, 37, 48, 1, 74, 70, 32, 60, 31, 62, 55, 72, 44, 91, 97, 35, 42, 8, 53, 89, 85, 5, 64, 3, 2, 27, 67, 61, 58, 82, 16
